p cnf 114 152
-1 -2 114 0 
-3 -1 -4 81 -2 114 0 
-5 -4 81 -2 114 0 
-1 -4 81 -2 114 0 
-4 81 -2 114 0 
-2 114 0 
-3 -2 114 0 
-6 15 21 -2 114 0 
-7 85 114 0 
-8 91 -2 114 0 
-7 85 114 0 
-9 11 12 13 14 16 17 18 19 20 24 25 26 30 50 51 52 53 55 58 59 60 61 62 63 67 68 70 71 102 106 108 114 0 
-10 114 0 
-11 9 12 13 14 16 17 18 19 20 24 25 26 30 50 51 52 53 55 58 59 60 61 62 63 67 68 70 71 102 106 108 114 0 
-12 9 11 13 14 16 17 18 19 20 24 25 26 30 50 51 52 53 55 58 59 60 61 62 63 67 68 70 71 102 106 108 114 0 
-13 9 11 12 14 16 17 18 19 20 24 25 26 30 50 51 52 53 55 58 59 60 61 62 63 67 68 70 71 102 106 108 114 0 
-14 9 11 12 13 16 17 18 19 20 24 25 26 30 50 51 52 53 55 58 59 60 61 62 63 67 68 70 71 102 106 108 114 0 
-15 6 21 114 0 
-16 9 11 12 13 14 17 18 19 20 24 25 26 30 50 51 52 53 55 58 59 60 61 62 63 67 68 70 71 102 106 108 114 0 
-17 9 11 12 13 14 16 18 19 20 24 25 26 30 50 51 52 53 55 58 59 60 61 62 63 67 68 70 71 102 106 108 114 0 
-18 9 11 12 13 14 16 17 19 20 24 25 26 30 50 51 52 53 55 58 59 60 61 62 63 67 68 70 71 102 106 108 114 0 
-19 9 11 12 13 14 16 17 18 20 24 25 26 30 50 51 52 53 55 58 59 60 61 62 63 67 68 70 71 102 106 108 114 0 
-20 9 11 12 13 14 16 17 18 19 24 25 26 30 50 51 52 53 55 58 59 60 61 62 63 67 68 70 71 102 106 108 114 0 
-21 6 15 -9 11 12 13 14 16 17 18 19 20 24 25 26 30 50 51 52 53 55 58 59 60 61 62 63 67 68 70 71 102 106 108 -22 -2 114 0 
-23 114 0 
-8 91 114 0 
-24 9 11 12 13 14 16 17 18 19 20 25 26 30 50 51 52 53 55 58 59 60 61 62 63 67 68 70 71 102 106 108 114 0 
-25 9 11 12 13 14 16 17 18 19 20 24 26 30 50 51 52 53 55 58 59 60 61 62 63 67 68 70 71 102 106 108 -3 114 0 
-6 15 21 -10 -1 114 0 
-26 9 11 12 13 14 16 17 18 19 20 24 25 30 50 51 52 53 55 58 59 60 61 62 63 67 68 70 71 102 106 108 -3 114 0 
-27 28 29 31 32 33 103 104 105 107 114 0 
-28 27 29 31 32 33 103 104 105 107 114 0 
-29 27 28 31 32 33 103 104 105 107 114 0 
-30 9 11 12 13 14 16 17 18 19 20 24 25 26 50 51 52 53 55 58 59 60 61 62 63 67 68 70 71 102 106 108 114 0 
-31 27 28 29 32 33 103 104 105 107 114 0 
-32 27 28 29 31 33 103 104 105 107 114 0 
-33 27 28 29 31 32 103 104 105 107 114 0 
-34 39 82 114 0 
-1 114 0 
-35 -27 28 29 31 32 33 103 104 105 107 -36 83 84 97 114 0 
-5 114 0 
-37 114 0 
-28 27 29 31 32 33 103 104 105 107 -38 114 0 
-39 34 82 -2 114 0 
-40 -2 114 0 
-41 47 114 0 
-42 114 0 
-43 114 0 
-44 -4 81 -2 114 0 
-45 -4 81 114 0 
-42 -4 81 114 0 
-46 -4 81 114 0 
-4 81 114 0 
-47 41 -4 81 114 0 
-6 15 21 -4 81 114 0 
-48 -4 81 114 0 
-37 -4 81 114 0 
-1 -4 81 114 0 
-22 -3 -2 114 0 
-3 -1 -2 114 0 
-49 -2 114 0 
-5 -2 114 0 
-50 9 11 12 13 14 16 17 18 19 20 24 25 26 30 51 52 53 55 58 59 60 61 62 63 67 68 70 71 102 106 108 114 0 
-51 9 11 12 13 14 16 17 18 19 20 24 25 26 30 50 52 53 55 58 59 60 61 62 63 67 68 70 71 102 106 108 114 0 
-52 9 11 12 13 14 16 17 18 19 20 24 25 26 30 50 51 53 55 58 59 60 61 62 63 67 68 70 71 102 106 108 114 0 
-53 9 11 12 13 14 16 17 18 19 20 24 25 26 30 50 51 52 55 58 59 60 61 62 63 67 68 70 71 102 106 108 114 0 
-54 111 114 0 
-55 9 11 12 13 14 16 17 18 19 20 24 25 26 30 50 51 52 53 58 59 60 61 62 63 67 68 70 71 102 106 108 114 0 
-56 -2 114 0 
-57 101 -2 114 0 
-58 9 11 12 13 14 16 17 18 19 20 24 25 26 30 50 51 52 53 55 59 60 61 62 63 67 68 70 71 102 106 108 114 0 
-59 9 11 12 13 14 16 17 18 19 20 24 25 26 30 50 51 52 53 55 58 60 61 62 63 67 68 70 71 102 106 108 114 0 
-60 9 11 12 13 14 16 17 18 19 20 24 25 26 30 50 51 52 53 55 58 59 61 62 63 67 68 70 71 102 106 108 114 0 
-61 9 11 12 13 14 16 17 18 19 20 24 25 26 30 50 51 52 53 55 58 59 60 62 63 67 68 70 71 102 106 108 114 0 
-62 9 11 12 13 14 16 17 18 19 20 24 25 26 30 50 51 52 53 55 58 59 60 61 63 67 68 70 71 102 106 108 114 0 
-63 9 11 12 13 14 16 17 18 19 20 24 25 26 30 50 51 52 53 55 58 59 60 61 62 67 68 70 71 102 106 108 114 0 
-64 80 -2 114 0 
-10 -2 114 0 
-17 9 11 12 13 14 16 18 19 20 24 25 26 30 50 51 52 53 55 58 59 60 61 62 63 67 68 70 71 102 106 108 -2 114 0 
-11 9 12 13 14 16 17 18 19 20 24 25 26 30 50 51 52 53 55 58 59 60 61 62 63 67 68 70 71 102 106 108 -2 114 0 
-25 9 11 12 13 14 16 17 18 19 20 24 26 30 50 51 52 53 55 58 59 60 61 62 63 67 68 70 71 102 106 108 -2 114 0 
-65 69 110 114 0 
-66 114 0 
-67 9 11 12 13 14 16 17 18 19 20 24 25 26 30 50 51 52 53 55 58 59 60 61 62 63 68 70 71 102 106 108 114 0 
-68 9 11 12 13 14 16 17 18 19 20 24 25 26 30 50 51 52 53 55 58 59 60 61 62 63 67 70 71 102 106 108 114 0 
-69 65 110 114 0 
-70 9 11 12 13 14 16 17 18 19 20 24 25 26 30 50 51 52 53 55 58 59 60 61 62 63 67 68 71 102 106 108 114 0 
-71 9 11 12 13 14 16 17 18 19 20 24 25 26 30 50 51 52 53 55 58 59 60 61 62 63 67 68 70 102 106 108 114 0 
-72 114 0 
-73 112 114 0 
-74 114 0 
-75 114 0 
-76 114 0 
-77 114 0 
-78 114 0 
-79 114 0 
-49 -4 81 114 0 
-3 -4 81 114 0 
-80 64 -81 4 114 0 
-82 34 39 -83 36 84 97 114 0 
-5 -82 34 39 -84 36 83 97 114 0 
-85 7 114 0 
-86 114 0 
-5 -87 114 0 
-88 -2 114 0 
-42 -2 114 0 
-74 -81 4 114 0 
-89 114 0 
-22 -2 114 0 
-3 -90 -91 8 114 0 
-80 64 -2 114 0 
-37 -2 114 0 
-92 -2 114 0 
-93 114 0 
-94 -2 114 0 
-45 -2 114 0 
-37 -4 81 -2 114 0 
-22 -95 -2 114 0 
-22 -49 -2 114 0 
-96 -4 81 -2 114 0 
-3 -4 81 -2 114 0 
-97 36 83 84 114 0 
-98 114 0 
-99 -2 114 0 
-96 114 0 
-44 114 0 
-100 114 0 
-3 -90 -91 8 -2 114 0 
-95 -2 114 0 
-101 57 114 0 
-102 9 11 12 13 14 16 17 18 19 20 24 25 26 30 50 51 52 53 55 58 59 60 61 62 63 67 68 70 71 106 108 114 0 
-103 27 28 29 31 32 33 104 105 107 114 0 
-104 27 28 29 31 32 33 103 105 107 114 0 
-105 27 28 29 31 32 33 103 104 107 114 0 
-106 9 11 12 13 14 16 17 18 19 20 24 25 26 30 50 51 52 53 55 58 59 60 61 62 63 67 68 70 71 102 108 114 0 
-107 27 28 29 31 32 33 103 104 105 114 0 
-108 9 11 12 13 14 16 17 18 19 20 24 25 26 30 50 51 52 53 55 58 59 60 61 62 63 67 68 70 71 102 106 114 0 
-82 34 39 -83 36 84 97 114 0 
-5 -82 34 39 -84 36 83 97 114 0 
-46 -2 114 0 
-85 7 114 0 
-86 114 0 
-5 -87 114 0 
-47 41 -2 114 0 
-48 -2 114 0 
-74 -2 114 0 
-1 -90 -91 8 -2 114 0 
-109 114 0 
-56 114 0 
-110 65 69 114 0 
-5 -111 54 -112 73 -47 41 114 0 
-113 114 0 
